certificates/rado_a7_c298_N43.cnf
c Rad2 upper bound instance: x1 + 7*x2 - x3 = 298, interval [1,43]
p cnf 43 336
1 4 43 0
-1 -4 -43 0
2 5 43 0
-2 -5 -43 0
3 6 43 0
-3 -6 -43 0
4 7 43 0
-4 -7 -43 0
1 5 42 0
-1 -5 -42 0
5 8 43 0
-5 -8 -43 0
2 6 42 0
-2 -6 -42 0
6 9 43 0
-6 -9 -43 0
3 7 42 0
-3 -7 -42 0
7 10 43 0
-7 -10 -43 0
4 8 42 0
-4 -8 -42 0
8 11 43 0
-8 -11 -43 0
5 9 42 0
-5 -9 -42 0
9 12 43 0
-9 -12 -43 0
6 10 42 0
-6 -10 -42 0
10 13 43 0
-10 -13 -43 0
7 11 42 0
-7 -11 -42 0
11 14 43 0
-11 -14 -43 0
1 12 41 0
-1 -12 -41 0
8 12 42 0
-8 -12 -42 0
12 15 43 0
-12 -15 -43 0
2 13 41 0
-2 -13 -41 0
9 13 42 0
-9 -13 -42 0
13 16 43 0
-13 -16 -43 0
3 14 41 0
-3 -14 -41 0
10 14 42 0
-10 -14 -42 0
14 17 43 0
-14 -17 -43 0
4 15 41 0
-4 -15 -41 0
11 15 42 0
-11 -15 -42 0
15 18 43 0
-15 -18 -43 0
5 16 41 0
-5 -16 -41 0
12 16 42 0
-12 -16 -42 0
16 19 43 0
-16 -19 -43 0
6 17 41 0
-6 -17 -41 0
13 17 42 0
-13 -17 -42 0
17 20 43 0
-17 -20 -43 0
7 18 41 0
-7 -18 -41 0
14 18 42 0
-14 -18 -42 0
18 21 43 0
-18 -21 -43 0
1 19 40 0
-1 -19 -40 0
8 19 41 0
-8 -19 -41 0
15 19 42 0
-15 -19 -42 0
19 22 43 0
-19 -22 -43 0
2 20 40 0
-2 -20 -40 0
9 20 41 0
-9 -20 -41 0
16 20 42 0
-16 -20 -42 0
20 23 43 0
-20 -23 -43 0
3 21 40 0
-3 -21 -40 0
10 21 41 0
-10 -21 -41 0
17 21 42 0
-17 -21 -42 0
21 24 43 0
-21 -24 -43 0
4 22 40 0
-4 -22 -40 0
11 22 41 0
-11 -22 -41 0
18 22 42 0
-18 -22 -42 0
22 25 43 0
-22 -25 -43 0
5 23 40 0
-5 -23 -40 0
12 23 41 0
-12 -23 -41 0
19 23 42 0
-19 -23 -42 0
23 26 43 0
-23 -26 -43 0
6 24 40 0
-6 -24 -40 0
13 24 41 0
-13 -24 -41 0
20 24 42 0
-20 -24 -42 0
24 27 43 0
-24 -27 -43 0
7 25 40 0
-7 -25 -40 0
14 25 41 0
-14 -25 -41 0
21 25 42 0
-21 -25 -42 0
25 28 43 0
-25 -28 -43 0
1 26 39 0
-1 -26 -39 0
8 26 40 0
-8 -26 -40 0
15 26 41 0
-15 -26 -41 0
22 26 42 0
-22 -26 -42 0
26 29 43 0
-26 -29 -43 0
2 27 39 0
-2 -27 -39 0
9 27 40 0
-9 -27 -40 0
16 27 41 0
-16 -27 -41 0
23 27 42 0
-23 -27 -42 0
27 30 43 0
-27 -30 -43 0
3 28 39 0
-3 -28 -39 0
10 28 40 0
-10 -28 -40 0
17 28 41 0
-17 -28 -41 0
24 28 42 0
-24 -28 -42 0
28 31 43 0
-28 -31 -43 0
4 29 39 0
-4 -29 -39 0
11 29 40 0
-11 -29 -40 0
18 29 41 0
-18 -29 -41 0
25 29 42 0
-25 -29 -42 0
29 32 43 0
-29 -32 -43 0
5 30 39 0
-5 -30 -39 0
12 30 40 0
-12 -30 -40 0
19 30 41 0
-19 -30 -41 0
26 30 42 0
-26 -30 -42 0
30 33 43 0
-30 -33 -43 0
6 31 39 0
-6 -31 -39 0
13 31 40 0
-13 -31 -40 0
20 31 41 0
-20 -31 -41 0
27 31 42 0
-27 -31 -42 0
31 34 43 0
-31 -34 -43 0
7 32 39 0
-7 -32 -39 0
14 32 40 0
-14 -32 -40 0
21 32 41 0
-21 -32 -41 0
28 32 42 0
-28 -32 -42 0
32 35 43 0
-32 -35 -43 0
1 33 38 0
-1 -33 -38 0
8 33 39 0
-8 -33 -39 0
15 33 40 0
-15 -33 -40 0
22 33 41 0
-22 -33 -41 0
29 33 42 0
-29 -33 -42 0
33 36 43 0
-33 -36 -43 0
2 34 38 0
-2 -34 -38 0
9 34 39 0
-9 -34 -39 0
16 34 40 0
-16 -34 -40 0
23 34 41 0
-23 -34 -41 0
30 34 42 0
-30 -34 -42 0
34 37 43 0
-34 -37 -43 0
3 35 38 0
-3 -35 -38 0
10 35 39 0
-10 -35 -39 0
17 35 40 0
-17 -35 -40 0
24 35 41 0
-24 -35 -41 0
31 35 42 0
-31 -35 -42 0
35 38 43 0
-35 -38 -43 0
4 36 38 0
-4 -36 -38 0
11 36 39 0
-11 -36 -39 0
18 36 40 0
-18 -36 -40 0
25 36 41 0
-25 -36 -41 0
32 36 42 0
-32 -36 -42 0
36 39 43 0
-36 -39 -43 0
5 37 38 0
-5 -37 -38 0
12 37 39 0
-12 -37 -39 0
19 37 40 0
-19 -37 -40 0
26 37 41 0
-26 -37 -41 0
33 37 42 0
-33 -37 -42 0
37 40 43 0
-37 -40 -43 0
6 38 0
-6 -38 0
13 38 39 0
-13 -38 -39 0
20 38 40 0
-20 -38 -40 0
27 38 41 0
-27 -38 -41 0
34 38 42 0
-34 -38 -42 0
38 41 43 0
-38 -41 -43 0
7 38 39 0
-7 -38 -39 0
14 39 0
-14 -39 0
21 39 40 0
-21 -39 -40 0
28 39 41 0
-28 -39 -41 0
35 39 42 0
-35 -39 -42 0
39 42 43 0
-39 -42 -43 0
1 37 40 0
-1 -37 -40 0
8 38 40 0
-8 -38 -40 0
15 39 40 0
-15 -39 -40 0
22 40 0
-22 -40 0
29 40 41 0
-29 -40 -41 0
36 40 42 0
-36 -40 -42 0
40 43 0
-40 -43 0
2 37 41 0
-2 -37 -41 0
9 38 41 0
-9 -38 -41 0
16 39 41 0
-16 -39 -41 0
23 40 41 0
-23 -40 -41 0
30 41 0
-30 -41 0
37 41 42 0
-37 -41 -42 0
3 37 42 0
-3 -37 -42 0
10 38 42 0
-10 -38 -42 0
17 39 42 0
-17 -39 -42 0
24 40 42 0
-24 -40 -42 0
31 41 42 0
-31 -41 -42 0
38 42 0
-38 -42 0
4 37 43 0
-4 -37 -43 0
11 38 43 0
-11 -38 -43 0
18 39 43 0
-18 -39 -43 0
25 40 43 0
-25 -40 -43 0
32 41 43 0
-32 -41 -43 0
