certificates/rado_a7_c298_N43.drat
-43 0
40 0
-22 0
19 0
25 0
-1 0
-37 0
-7 0
4 0
34 0
10 0
-16 0
-28 0
13 0
31 0
0
